\ENCODING=ISO-8859-1
\Problem name: instances

Maximize
 obj:
Subject To
 c1: 63 x1 + 60 x2 + 45 x3 - 55 x4 + 66 x5 + 2 x6 + 32 x7 - 25 x8 + 20 x9
     + 79 x10 <= 215
 c2: 79 x1 + 65 x2 + 91 x3 + 60 x4 + 12 x5 + 43 x6 + 89 x7 - 5 x8 + 51 x9
     <= 324
 c3: 19 x1 - 76 x3 + 75 x4 + 13 x5 + 6 x6 + 32 x7 + 54 x8 + 20 x9 + 12 x10
     <= 155
 c4: 41 x1 + 86 x2 + 46 x3 + 23 x4 + 98 x5 + 72 x6 + 80 x8 + 91 x9 + 85 x10
     <= 117
 c5: 10 x1 + 37 x2 + 89 x4 + 71 x5 - 63 x6 - 59 x7 + 92 x8 + 25 x9 + 93 x10
     <= 135
Bounds
      x1 >= 0
      x2 >= 0
      x3 >= 0
      x4 >= 0
      x5 >= 0
      x6 >= 0
      x7 >= 0
      x8 >= 0
      x9 >= 0
      x10 >= 0
Generals
 x1  x2  x3  x4  x5  x6  x7  x8  x9  x10 
End
